certificates/rado_a10_c44_N31.drat
-26 4 -30 0
-27 -30 -31 0
-2 -28 -29 -30 -31 0
-26 -30 0
d -4 -26 -30 0
d -26 4 -30 0
-30 -31 0
d -27 -30 -31 0
26 30 0
-4 -31 0
-31 0
2 4 0
4 0
-8 0
-2 0
26 0
7 0
5 0
-30 0
-22 0
-11 0
-3 0
-20 0
-1 0
-10 0
-9 0
-13 0
6 0
0
